
Gurobi 8.1.1 (linux64, Python) logging started Thu Sep 12 07:29:48 2019

Academic license - for non-commercial use only
Optimize a model with 7 rows, 16 columns and 7 nonzeros
Coefficient statistics:
  Matrix range     [1e+00, 1e+00]
  Objective range  [0e+00, 0e+00]
  Bounds range     [0e+00, 0e+00]
  RHS range        [1e-01, 7e-01]
Presolve removed 7 rows and 16 columns
Presolve time: 0.03s
Presolve: All rows and columns removed
Iteration    Objective       Primal Inf.    Dual Inf.      Time
       0    0.0000000e+00   0.000000e+00   1.000000e-05      0s

Solved in 0 iterations and 0.04 seconds
Optimal objective  0.000000000e+00
Optimize a model with 9 rows, 16 columns and 9 nonzeros
Coefficient statistics:
  Matrix range     [1e+00, 1e+00]
  Objective range  [0e+00, 0e+00]
  Bounds range     [0e+00, 0e+00]
  RHS range        [1e-01, 1e+00]
Iteration    Objective       Primal Inf.    Dual Inf.      Time
       0      handle free variables                          0s
       1    0.0000000e+00   0.000000e+00   0.000000e+00      0s

Solved in 1 iterations and 0.00 seconds
Optimal objective  0.000000000e+00
Optimize a model with 11 rows, 16 columns and 11 nonzeros
Coefficient statistics:
  Matrix range     [1e+00, 1e+00]
  Objective range  [0e+00, 0e+00]
  Bounds range     [0e+00, 0e+00]
  RHS range        [1e-01, 1e+00]
Iteration    Objective       Primal Inf.    Dual Inf.      Time
       0      handle free variables                          0s
       1    0.0000000e+00   0.000000e+00   0.000000e+00      0s

Solved in 1 iterations and 0.00 seconds
Optimal objective  0.000000000e+00
Optimize a model with 13 rows, 16 columns and 13 nonzeros
Coefficient statistics:
  Matrix range     [1e+00, 1e+00]
  Objective range  [0e+00, 0e+00]
  Bounds range     [0e+00, 0e+00]
  RHS range        [1e-01, 1e+00]
Iteration    Objective       Primal Inf.    Dual Inf.      Time
       0      handle free variables                          0s
       1    0.0000000e+00   0.000000e+00   0.000000e+00      0s

Solved in 1 iterations and 0.00 seconds
Optimal objective  0.000000000e+00
Optimize a model with 15 rows, 16 columns and 15 nonzeros
Coefficient statistics:
  Matrix range     [1e+00, 1e+00]
  Objective range  [0e+00, 0e+00]
  Bounds range     [0e+00, 0e+00]
  RHS range        [1e-01, 1e+00]
Iteration    Objective       Primal Inf.    Dual Inf.      Time
       0      handle free variables                          0s
       1    0.0000000e+00   0.000000e+00   0.000000e+00      0s

Solved in 1 iterations and 0.00 seconds
Optimal objective  0.000000000e+00
Optimize a model with 17 rows, 16 columns and 17 nonzeros
Coefficient statistics:
  Matrix range     [1e+00, 1e+00]
  Objective range  [0e+00, 0e+00]
  Bounds range     [0e+00, 0e+00]
  RHS range        [1e-01, 1e+00]
Iteration    Objective       Primal Inf.    Dual Inf.      Time
       0      handle free variables                          0s
       1    0.0000000e+00   0.000000e+00   0.000000e+00      0s

Solved in 1 iterations and 0.00 seconds
Optimal objective  0.000000000e+00
Optimize a model with 19 rows, 16 columns and 19 nonzeros
Coefficient statistics:
  Matrix range     [1e+00, 1e+00]
  Objective range  [0e+00, 0e+00]
  Bounds range     [0e+00, 0e+00]
  RHS range        [1e-01, 1e+00]
Iteration    Objective       Primal Inf.    Dual Inf.      Time
       0      handle free variables                          0s
       1    0.0000000e+00   0.000000e+00   0.000000e+00      0s

Solved in 1 iterations and 0.00 seconds
Optimal objective  0.000000000e+00
Optimize a model with 32 rows, 16 columns and 137 nonzeros
Model has 7 quadratic objective terms
Coefficient statistics:
  Matrix range     [1e+00, 6e+02]
  Objective range  [0e+00, 0e+00]
  QObjective range [2e+00, 2e+00]
  Bounds range     [0e+00, 0e+00]
  RHS range        [1e-05, 1e+00]
Presolve removed 25 rows and 9 columns
Presolve time: 0.01s
Presolved: 7 rows, 7 columns, 49 nonzeros
Presolved model has 7 quadratic objective terms
Ordering time: 0.00s

Barrier statistics:
 AA' NZ     : 2.100e+01
 Factor NZ  : 2.800e+01
 Factor Ops : 1.400e+02 (less than 1 second per iteration)
 Threads    : 1

                  Objective                Residual
Iter       Primal          Dual         Primal    Dual     Compl     Time
   0   1.74990734e+06 -1.78488704e+06  9.98e+02 4.99e+02  1.00e+06     0s
   1   8.66426637e+04 -1.19041316e+05  3.51e+02 1.18e+02  2.48e+05     0s
   2   4.02354160e+00 -3.45872013e+04  1.13e+00 4.65e-01  2.63e+03     0s
   3   1.56765366e+00 -5.24396022e+03  0.00e+00 1.36e-02  2.55e+02     0s
   4   1.54795261e+00 -1.72395012e+01  0.00e+00 3.33e-05  8.95e-01     0s
   5   1.75471946e-01 -3.40865060e+00  0.00e+00 3.33e-11  1.71e-01     0s
   6   6.65881283e-02 -1.97274378e-02  0.00e+00 2.03e-13  4.11e-03     0s
   7   2.88439143e-02  2.36136536e-02  0.00e+00 1.11e-16  2.49e-04     0s
   8   2.55327266e-02  2.46575101e-02  0.00e+00 0.00e+00  4.17e-05     0s
   9   2.55396611e-02  2.54528728e-02  0.00e+00 2.22e-16  4.13e-06     0s
  10   2.55295236e-02  2.55294358e-02  0.00e+00 2.22e-16  4.18e-09     0s
  11   2.55295132e-02  2.55295131e-02  0.00e+00 1.11e-16  4.18e-12     0s

Barrier solved model in 11 iterations and 0.01 seconds
Optimal objective 2.55295132e-02

Optimize a model with 7 rows, 16 columns and 7 nonzeros
Coefficient statistics:
  Matrix range     [1e+00, 1e+00]
  Objective range  [0e+00, 0e+00]
  Bounds range     [0e+00, 0e+00]
  RHS range        [1e-01, 7e-01]
Presolve removed 7 rows and 16 columns
Presolve time: 0.00s
Presolve: All rows and columns removed
Iteration    Objective       Primal Inf.    Dual Inf.      Time
       0    0.0000000e+00   0.000000e+00   1.000000e-05      0s

Solved in 0 iterations and 0.00 seconds
Optimal objective  0.000000000e+00
Optimize a model with 9 rows, 16 columns and 9 nonzeros
Coefficient statistics:
  Matrix range     [1e+00, 1e+00]
  Objective range  [0e+00, 0e+00]
  Bounds range     [0e+00, 0e+00]
  RHS range        [1e-01, 1e+00]
Iteration    Objective       Primal Inf.    Dual Inf.      Time
       0      handle free variables                          0s
       1    0.0000000e+00   0.000000e+00   0.000000e+00      0s

Solved in 1 iterations and 0.00 seconds
Optimal objective  0.000000000e+00
Optimize a model with 11 rows, 16 columns and 11 nonzeros
Coefficient statistics:
  Matrix range     [1e+00, 1e+00]
  Objective range  [0e+00, 0e+00]
  Bounds range     [0e+00, 0e+00]
  RHS range        [1e-01, 1e+00]
Iteration    Objective       Primal Inf.    Dual Inf.      Time
       0      handle free variables                          0s
       1    0.0000000e+00   0.000000e+00   0.000000e+00      0s

Solved in 1 iterations and 0.00 seconds
Optimal objective  0.000000000e+00
Optimize a model with 13 rows, 16 columns and 13 nonzeros
Coefficient statistics:
  Matrix range     [1e+00, 1e+00]
  Objective range  [0e+00, 0e+00]
  Bounds range     [0e+00, 0e+00]
  RHS range        [1e-01, 1e+00]
Iteration    Objective       Primal Inf.    Dual Inf.      Time
       0      handle free variables                          0s
       1    0.0000000e+00   0.000000e+00   0.000000e+00      0s

Solved in 1 iterations and 0.00 seconds
Optimal objective  0.000000000e+00
Optimize a model with 15 rows, 16 columns and 15 nonzeros
Coefficient statistics:
  Matrix range     [1e+00, 1e+00]
  Objective range  [0e+00, 0e+00]
  Bounds range     [0e+00, 0e+00]
  RHS range        [1e-01, 1e+00]
Iteration    Objective       Primal Inf.    Dual Inf.      Time
       0      handle free variables                          0s
       1    0.0000000e+00   0.000000e+00   0.000000e+00      0s

Solved in 1 iterations and 0.00 seconds
Optimal objective  0.000000000e+00
Optimize a model with 17 rows, 16 columns and 17 nonzeros
Coefficient statistics:
  Matrix range     [1e+00, 1e+00]
  Objective range  [0e+00, 0e+00]
  Bounds range     [0e+00, 0e+00]
  RHS range        [1e-01, 1e+00]
Iteration    Objective       Primal Inf.    Dual Inf.      Time
       0      handle free variables                          0s
       1    0.0000000e+00   0.000000e+00   0.000000e+00      0s

Solved in 1 iterations and 0.00 seconds
Optimal objective  0.000000000e+00
Optimize a model with 19 rows, 16 columns and 19 nonzeros
Coefficient statistics:
  Matrix range     [1e+00, 1e+00]
  Objective range  [0e+00, 0e+00]
  Bounds range     [0e+00, 0e+00]
  RHS range        [1e-01, 1e+00]
Iteration    Objective       Primal Inf.    Dual Inf.      Time
       0      handle free variables                          0s
       1    0.0000000e+00   0.000000e+00   0.000000e+00      0s

Solved in 1 iterations and 0.00 seconds
Optimal objective  0.000000000e+00
Optimize a model with 32 rows, 16 columns and 137 nonzeros
Model has 7 quadratic objective terms
Coefficient statistics:
  Matrix range     [1e+00, 6e+02]
  Objective range  [0e+00, 0e+00]
  QObjective range [2e+00, 2e+00]
  Bounds range     [0e+00, 0e+00]
  RHS range        [1e-05, 1e+00]
Presolve removed 25 rows and 9 columns
Presolve time: 0.00s
Presolved: 7 rows, 7 columns, 49 nonzeros
Presolved model has 7 quadratic objective terms
Ordering time: 0.00s

Barrier statistics:
 AA' NZ     : 2.100e+01
 Factor NZ  : 2.800e+01
 Factor Ops : 1.400e+02 (less than 1 second per iteration)
 Threads    : 1

                  Objective                Residual
Iter       Primal          Dual         Primal    Dual     Compl     Time
   0   1.74990734e+06 -1.78488704e+06  9.98e+02 4.99e+02  1.00e+06     0s
   1   8.66426637e+04 -1.19041316e+05  3.51e+02 1.18e+02  2.48e+05     0s
   2   4.02354160e+00 -3.45872013e+04  1.13e+00 4.65e-01  2.63e+03     0s
   3   1.56765366e+00 -5.24396022e+03  0.00e+00 1.36e-02  2.55e+02     0s
   4   1.54795261e+00 -1.72395012e+01  0.00e+00 3.33e-05  8.95e-01     0s
   5   1.75471946e-01 -3.40865060e+00  0.00e+00 3.33e-11  1.71e-01     0s
   6   6.65881283e-02 -1.97274378e-02  0.00e+00 2.03e-13  4.11e-03     0s
   7   2.88439143e-02  2.36136536e-02  0.00e+00 1.11e-16  2.49e-04     0s
   8   2.55327266e-02  2.46575101e-02  0.00e+00 0.00e+00  4.17e-05     0s
   9   2.55396611e-02  2.54528728e-02  0.00e+00 2.22e-16  4.13e-06     0s
  10   2.55295236e-02  2.55294358e-02  0.00e+00 2.22e-16  4.18e-09     0s
  11   2.55295132e-02  2.55295131e-02  0.00e+00 1.11e-16  4.18e-12     0s

Barrier solved model in 11 iterations and 0.00 seconds
Optimal objective 2.55295132e-02

Optimize a model with 7 rows, 16 columns and 7 nonzeros
Coefficient statistics:
  Matrix range     [1e+00, 1e+00]
  Objective range  [0e+00, 0e+00]
  Bounds range     [0e+00, 0e+00]
  RHS range        [1e-01, 7e-01]
Presolve removed 7 rows and 16 columns
Presolve time: 0.00s
Presolve: All rows and columns removed
Iteration    Objective       Primal Inf.    Dual Inf.      Time
       0    0.0000000e+00   0.000000e+00   1.000000e-05      0s

Solved in 0 iterations and 0.00 seconds
Optimal objective  0.000000000e+00
Optimize a model with 9 rows, 16 columns and 9 nonzeros
Coefficient statistics:
  Matrix range     [1e+00, 1e+00]
  Objective range  [0e+00, 0e+00]
  Bounds range     [0e+00, 0e+00]
  RHS range        [1e-01, 1e+00]
Iteration    Objective       Primal Inf.    Dual Inf.      Time
       0      handle free variables                          0s
       1    0.0000000e+00   0.000000e+00   0.000000e+00      0s

Solved in 1 iterations and 0.00 seconds
Optimal objective  0.000000000e+00
Optimize a model with 11 rows, 16 columns and 11 nonzeros
Coefficient statistics:
  Matrix range     [1e+00, 1e+00]
  Objective range  [0e+00, 0e+00]
  Bounds range     [0e+00, 0e+00]
  RHS range        [1e-01, 1e+00]
Iteration    Objective       Primal Inf.    Dual Inf.      Time
       0      handle free variables                          0s
       1    0.0000000e+00   0.000000e+00   0.000000e+00      0s

Solved in 1 iterations and 0.00 seconds
Optimal objective  0.000000000e+00
Optimize a model with 13 rows, 16 columns and 13 nonzeros
Coefficient statistics:
  Matrix range     [1e+00, 1e+00]
  Objective range  [0e+00, 0e+00]
  Bounds range     [0e+00, 0e+00]
  RHS range        [1e-01, 1e+00]
Iteration    Objective       Primal Inf.    Dual Inf.      Time
       0      handle free variables                          0s
       1    0.0000000e+00   0.000000e+00   0.000000e+00      0s

Solved in 1 iterations and 0.00 seconds
Optimal objective  0.000000000e+00
Optimize a model with 15 rows, 16 columns and 15 nonzeros
Coefficient statistics:
  Matrix range     [1e+00, 1e+00]
  Objective range  [0e+00, 0e+00]
  Bounds range     [0e+00, 0e+00]
  RHS range        [1e-01, 1e+00]
Iteration    Objective       Primal Inf.    Dual Inf.      Time
       0      handle free variables                          0s
       1    0.0000000e+00   0.000000e+00   0.000000e+00      0s

Solved in 1 iterations and 0.00 seconds
Optimal objective  0.000000000e+00
Optimize a model with 17 rows, 16 columns and 17 nonzeros
Coefficient statistics:
  Matrix range     [1e+00, 1e+00]
  Objective range  [0e+00, 0e+00]
  Bounds range     [0e+00, 0e+00]
  RHS range        [1e-01, 1e+00]
Iteration    Objective       Primal Inf.    Dual Inf.      Time
       0      handle free variables                          0s
       1    0.0000000e+00   0.000000e+00   0.000000e+00      0s

Solved in 1 iterations and 0.00 seconds
Optimal objective  0.000000000e+00
Optimize a model with 19 rows, 16 columns and 19 nonzeros
Coefficient statistics:
  Matrix range     [1e+00, 1e+00]
  Objective range  [0e+00, 0e+00]
  Bounds range     [0e+00, 0e+00]
  RHS range        [1e-01, 1e+00]
Iteration    Objective       Primal Inf.    Dual Inf.      Time
       0      handle free variables                          0s
       1    0.0000000e+00   0.000000e+00   0.000000e+00      0s

Solved in 1 iterations and 0.00 seconds
Optimal objective  0.000000000e+00
Optimize a model with 32 rows, 16 columns and 137 nonzeros
Model has 7 quadratic objective terms
Coefficient statistics:
  Matrix range     [1e+00, 6e+02]
  Objective range  [0e+00, 0e+00]
  QObjective range [2e+00, 2e+00]
  Bounds range     [0e+00, 0e+00]
  RHS range        [1e-05, 1e+00]
Presolve removed 25 rows and 9 columns
Presolve time: 0.00s
Presolved: 7 rows, 7 columns, 49 nonzeros
Presolved model has 7 quadratic objective terms
Ordering time: 0.00s

Barrier statistics:
 AA' NZ     : 2.100e+01
 Factor NZ  : 2.800e+01
 Factor Ops : 1.400e+02 (less than 1 second per iteration)
 Threads    : 1

                  Objective                Residual
Iter       Primal          Dual         Primal    Dual     Compl     Time
   0   1.74990734e+06 -1.78488704e+06  9.98e+02 4.99e+02  1.00e+06     0s
   1   8.66426637e+04 -1.19041316e+05  3.51e+02 1.18e+02  2.48e+05     0s
   2   4.02354160e+00 -3.45872013e+04  1.13e+00 4.65e-01  2.63e+03     0s
   3   1.56765366e+00 -5.24396022e+03  0.00e+00 1.36e-02  2.55e+02     0s
   4   1.54795261e+00 -1.72395012e+01  0.00e+00 3.33e-05  8.95e-01     0s
   5   1.75471946e-01 -3.40865060e+00  0.00e+00 3.33e-11  1.71e-01     0s
   6   6.65881283e-02 -1.97274378e-02  0.00e+00 2.03e-13  4.11e-03     0s
   7   2.88439143e-02  2.36136536e-02  0.00e+00 1.11e-16  2.49e-04     0s
   8   2.55327266e-02  2.46575101e-02  0.00e+00 0.00e+00  4.17e-05     0s
   9   2.55396611e-02  2.54528728e-02  0.00e+00 2.22e-16  4.13e-06     0s
  10   2.55295236e-02  2.55294358e-02  0.00e+00 2.22e-16  4.18e-09     0s
  11   2.55295132e-02  2.55295131e-02  0.00e+00 1.11e-16  4.18e-12     0s

Barrier solved model in 11 iterations and 0.00 seconds
Optimal objective 2.55295132e-02

Optimize a model with 7 rows, 16 columns and 7 nonzeros
Coefficient statistics:
  Matrix range     [1e+00, 1e+00]
  Objective range  [0e+00, 0e+00]
  Bounds range     [0e+00, 0e+00]
  RHS range        [1e-01, 7e-01]
Presolve removed 7 rows and 16 columns
Presolve time: 0.00s
Presolve: All rows and columns removed
Iteration    Objective       Primal Inf.    Dual Inf.      Time
       0    0.0000000e+00   0.000000e+00   1.000000e-05      0s

Solved in 0 iterations and 0.00 seconds
Optimal objective  0.000000000e+00
Optimize a model with 9 rows, 16 columns and 9 nonzeros
Coefficient statistics:
  Matrix range     [1e+00, 1e+00]
  Objective range  [0e+00, 0e+00]
  Bounds range     [0e+00, 0e+00]
  RHS range        [1e-01, 1e+00]
Iteration    Objective       Primal Inf.    Dual Inf.      Time
       0      handle free variables                          0s
       1    0.0000000e+00   0.000000e+00   0.000000e+00      0s

Solved in 1 iterations and 0.00 seconds
Optimal objective  0.000000000e+00
Optimize a model with 11 rows, 16 columns and 11 nonzeros
Coefficient statistics:
  Matrix range     [1e+00, 1e+00]
  Objective range  [0e+00, 0e+00]
  Bounds range     [0e+00, 0e+00]
  RHS range        [1e-01, 1e+00]
Iteration    Objective       Primal Inf.    Dual Inf.      Time
       0      handle free variables                          0s
       1    0.0000000e+00   0.000000e+00   0.000000e+00      0s

Solved in 1 iterations and 0.00 seconds
Optimal objective  0.000000000e+00
Optimize a model with 13 rows, 16 columns and 13 nonzeros
Coefficient statistics:
  Matrix range     [1e+00, 1e+00]
  Objective range  [0e+00, 0e+00]
  Bounds range     [0e+00, 0e+00]
  RHS range        [1e-01, 1e+00]
Iteration    Objective       Primal Inf.    Dual Inf.      Time
       0      handle free variables                          0s
       1    0.0000000e+00   0.000000e+00   0.000000e+00      0s

Solved in 1 iterations and 0.00 seconds
Optimal objective  0.000000000e+00
Optimize a model with 15 rows, 16 columns and 15 nonzeros
Coefficient statistics:
  Matrix range     [1e+00, 1e+00]
  Objective range  [0e+00, 0e+00]
  Bounds range     [0e+00, 0e+00]
  RHS range        [1e-01, 1e+00]
Iteration    Objective       Primal Inf.    Dual Inf.      Time
       0      handle free variables                          0s
       1    0.0000000e+00   0.000000e+00   0.000000e+00      0s

Solved in 1 iterations and 0.00 seconds
Optimal objective  0.000000000e+00
Optimize a model with 17 rows, 16 columns and 17 nonzeros
Coefficient statistics:
  Matrix range     [1e+00, 1e+00]
  Objective range  [0e+00, 0e+00]
  Bounds range     [0e+00, 0e+00]
  RHS range        [1e-01, 1e+00]
Iteration    Objective       Primal Inf.    Dual Inf.      Time
       0      handle free variables                          0s
       1    0.0000000e+00   0.000000e+00   0.000000e+00      0s

Solved in 1 iterations and 0.00 seconds
Optimal objective  0.000000000e+00
Optimize a model with 19 rows, 16 columns and 19 nonzeros
Coefficient statistics:
  Matrix range     [1e+00, 1e+00]
  Objective range  [0e+00, 0e+00]
  Bounds range     [0e+00, 0e+00]
  RHS range        [1e-01, 1e+00]
Iteration    Objective       Primal Inf.    Dual Inf.      Time
       0      handle free variables                          0s
       1    0.0000000e+00   0.000000e+00   0.000000e+00      0s

Solved in 1 iterations and 0.00 seconds
Optimal objective  0.000000000e+00
Optimize a model with 32 rows, 16 columns and 137 nonzeros
Model has 7 quadratic objective terms
Coefficient statistics:
  Matrix range     [1e+00, 6e+02]
  Objective range  [0e+00, 0e+00]
  QObjective range [2e+00, 2e+00]
  Bounds range     [0e+00, 0e+00]
  RHS range        [1e-05, 1e+00]
Presolve removed 25 rows and 9 columns
Presolve time: 0.00s
Presolved: 7 rows, 7 columns, 49 nonzeros
Presolved model has 7 quadratic objective terms
Ordering time: 0.00s

Barrier statistics:
 AA' NZ     : 2.100e+01
 Factor NZ  : 2.800e+01
 Factor Ops : 1.400e+02 (less than 1 second per iteration)
 Threads    : 1

                  Objective                Residual
Iter       Primal          Dual         Primal    Dual     Compl     Time
   0   1.74990734e+06 -1.78488704e+06  9.98e+02 4.99e+02  1.00e+06     0s
   1   8.66426637e+04 -1.19041316e+05  3.51e+02 1.18e+02  2.48e+05     0s
   2   4.02354160e+00 -3.45872013e+04  1.13e+00 4.65e-01  2.63e+03     0s
   3   1.56765366e+00 -5.24396022e+03  0.00e+00 1.36e-02  2.55e+02     0s
   4   1.54795261e+00 -1.72395012e+01  0.00e+00 3.33e-05  8.95e-01     0s
   5   1.75471946e-01 -3.40865060e+00  0.00e+00 3.33e-11  1.71e-01     0s
   6   6.65881283e-02 -1.97274378e-02  0.00e+00 2.03e-13  4.11e-03     0s
   7   2.88439143e-02  2.36136536e-02  0.00e+00 1.11e-16  2.49e-04     0s
   8   2.55327266e-02  2.46575101e-02  0.00e+00 0.00e+00  4.17e-05     0s
   9   2.55396611e-02  2.54528728e-02  0.00e+00 2.22e-16  4.13e-06     0s
  10   2.55295236e-02  2.55294358e-02  0.00e+00 2.22e-16  4.18e-09     0s
  11   2.55295132e-02  2.55295131e-02  0.00e+00 1.11e-16  4.18e-12     0s

Barrier solved model in 11 iterations and 0.00 seconds
Optimal objective 2.55295132e-02

